<number of tasks>
50

<cycle time>
1000

<order strength>
0.595


<task times>
1 491
2 611
3 378
4 443
5 612
6 657
7 607
8 503
9 810
10 735
11 417
12 387
13 425
14 626
15 533
16 541
17 385
18 569
19 488
20 410
21 503
22 474
23 572
24 234
25 435
26 662
27 508
28 547
29 502
30 530
31 503
32 346
33 277
34 438
35 581
36 429
37 420
38 501
39 399
40 597
41 440
42 437
43 642
44 484
45 621
46 577
47 662
48 279
49 644
50 693

<precedence relations>
1,5
2,6
3,7
3,9
4,8
5,10
6,12
7,11
8,13
9,12
9,13
9,14
10,15
11,17
12,18
12,19
13,16
13,18
13,24
14,18
14,19
15,23
16,20
17,21
18,22
18,23
19,23
19,24
20,28
21,25
22,27
23,29
23,34
24,26
24,28
24,29
24,33
25,32
26,30
27,33
28,31
28,32
28,34
28,35
29,31
29,32
29,35
30,36
31,37
31,38
31,40
32,38
32,39
32,40
33,38
34,40
35,38
36,41
37,42
38,43
38,46
39,43
39,46
40,43
40,46
41,45
42,44
43,45
44,46
45,47
45,48
45,49
45,50

<end>
